(define-fun randomness-mapping-GETAOUT
    (
        (base-ctr-0 Int)
        (base-ctr-1 Int)
        (id-0  SampleId)
        (id-1  SampleId)
        (scr-0 Int)
        (scr-1 Int)
    )
    Bool
    false
)

(define-fun invariant
    (
        (left-game <GameState_LayerHybrid_<$<!n!><!m!><!p!>$>>)
        (right-game <GameState_LayerIdeal_<$<!n!><!m!><!p!>$>>)
    )
    Bool
    false
)